NAME          
ROWS
 N  OBJ
 L  c1_1
 L  c2_1
 L  c3
 L  c4
 L  c5
 G  c1
 G  c2
COLUMNS
    ss[1]     c1        1
    ss[1]     OBJ       1000
    ss[2]     c2        1
    ss[2]     OBJ       1000
    s[1]      c1_1      1
    s[1]      OBJ       -1000
    s[2]      c2_1      1
    s[2]      OBJ       -1000
    s[3]      c3        1
    s[3]      OBJ       -1000
    s[4]      c4        1
    s[4]      OBJ       -1000
    s[5]      c5        1
    s[5]      OBJ       -1000
    MARKER    'MARKER'                 'INTORG'
    x[1]      c1_1      563
    x[1]      c2_1      588
    x[1]      c3        84
    x[1]      c4        728
    x[1]      c5        1000
    x[1]      c1        556
    x[1]      c2        413
    x[1]      OBJ       -956
    x[2]      c1_1      659
    x[2]      c2_1      89
    x[2]      c3        258
    x[2]      c4        593
    x[2]      c5        637
    x[2]      c1        125
    x[2]      c2        794
    x[2]      OBJ       -765
    x[3]      c1_1      144
    x[3]      c2_1      884
    x[3]      c3        463
    x[3]      c4        698
    x[3]      c5        396
    x[3]      c1        736
    x[3]      c2        494
    x[3]      OBJ       -796
    x[4]      c1_1      345
    x[4]      c2_1      128
    x[4]      c3        654
    x[4]      c4        258
    x[4]      c5        715
    x[4]      c1        557
    x[4]      c2        821
    x[4]      OBJ       -190
    x[5]      c1_1      188
    x[5]      c2_1      202
    x[5]      c3        834
    x[5]      c4        459
    x[5]      c5        62
    x[5]      c1        301
    x[5]      c2        348
    x[5]      OBJ       -762
    x[6]      c1_1      345
    x[6]      c2_1      635
    x[6]      c3        545
    x[6]      c4        210
    x[6]      c5        136
    x[6]      c1        6
    x[6]      c2        961
    x[6]      OBJ       -758
    x[7]      c1_1      585
    x[7]      c2_1      29
    x[7]      c3        277
    x[7]      c4        433
    x[7]      c5        727
    x[7]      c1        111
    x[7]      c2        63
    x[7]      OBJ       -1073
    x[8]      c1_1      400
    x[8]      c2_1      730
    x[8]      c3        781
    x[8]      c4        564
    x[8]      c5        187
    x[8]      c1        16
    x[8]      c2        962
    x[8]      OBJ       -847
    x[9]      c1_1      396
    x[9]      c2_1      968
    x[9]      c3        961
    x[9]      c4        782
    x[9]      c5        892
    x[9]      c1        704
    x[9]      c2        799
    x[9]      OBJ       -834
    x[10]     c1_1      425
    x[10]     c2_1      426
    x[10]     c3        531
    x[10]     c4        795
    x[10]     c5        872
    x[10]     c1        952
    x[10]     c2        242
    x[10]     OBJ       -867
    x[11]     c1_1      393
    x[11]     c2_1      101
    x[11]     c3        664
    x[11]     c4        920
    x[11]     c5        701
    x[11]     c1        408
    x[11]     c2        352
    x[11]     OBJ       -1052
    x[12]     c1_1      392
    x[12]     c2_1      987
    x[12]     c3        259
    x[12]     c4        417
    x[12]     c5        61
    x[12]     c1        492
    x[12]     c2        337
    x[12]     OBJ       -587
    x[13]     c1_1      864
    x[13]     c2_1      624
    x[13]     c3        334
    x[13]     c4        190
    x[13]     c5        836
    x[13]     c1        163
    x[13]     c2        111
    x[13]     OBJ       -1301
    x[14]     c1_1      460
    x[14]     c2_1      911
    x[14]     c3        589
    x[14]     c4        104
    x[14]     c5        112
    x[14]     c1        938
    x[14]     c2        559
    x[14]     OBJ       -468
    x[15]     c1_1      874
    x[15]     c2_1      580
    x[15]     c3        388
    x[15]     c4        40
    x[15]     c5        768
    x[15]     c1        315
    x[15]     c2        889
    x[15]     OBJ       -672
    x[16]     c1_1      949
    x[16]     c2_1      306
    x[16]     c3        857
    x[16]     c4        211
    x[16]     c5        538
    x[16]     c1        949
    x[16]     c2        595
    x[16]     OBJ       -573
    x[17]     c1_1      969
    x[17]     c2_1      536
    x[17]     c3        792
    x[17]     c4        717
    x[17]     c5        494
    x[17]     c1        670
    x[17]     c2        914
    x[17]     OBJ       -444
    x[18]     c1_1      774
    x[18]     c2_1      132
    x[18]     c3        905
    x[18]     c4        602
    x[18]     c5        801
    x[18]     c1        1000
    x[18]     c2        576
    x[18]     OBJ       -322
    x[19]     c1_1      106
    x[19]     c2_1      370
    x[19]     c3        213
    x[19]     c4        969
    x[19]     c5        327
    x[19]     c1        457
    x[19]     c2        312
    x[19]     OBJ       -547
    x[20]     c1_1      198
    x[20]     c2_1      691
    x[20]     c3        749
    x[20]     c4        927
    x[20]     c5        67
    x[20]     c1        816
    x[20]     c2        323
    x[20]     OBJ       -414
    x[21]     c1_1      987
    x[21]     c2_1      739
    x[21]     c3        277
    x[21]     c4        585
    x[21]     c5        973
    x[21]     c1        357
    x[21]     c2        153
    x[21]     OBJ       -1052
    x[22]     c1_1      234
    x[22]     c2_1      75
    x[22]     c3        31
    x[22]     c4        191
    x[22]     c5        711
    x[22]     c1        495
    x[22]     c2        888
    x[22]     OBJ       -334
    x[23]     c1_1      770
    x[23]     c2_1      427
    x[23]     c3        178
    x[23]     c4        614
    x[23]     c5        670
    x[23]     c1        916
    x[23]     c2        287
    x[23]     OBJ       -413
    x[24]     c1_1      870
    x[24]     c2_1      500
    x[24]     c3        620
    x[24]     c4        181
    x[24]     c5        478
    x[24]     c1        852
    x[24]     c2        627
    x[24]     OBJ       -650
    x[25]     c1_1      933
    x[25]     c2_1      237
    x[25]     c3        690
    x[25]     c4        842
    x[25]     c5        9
    x[25]     c1        614
    x[25]     c2        888
    x[25]     OBJ       -614
    x[26]     c1_1      599
    x[26]     c2_1      945
    x[26]     c3        916
    x[26]     c4        11
    x[26]     c5        373
    x[26]     c1        161
    x[26]     c2        634
    x[26]     OBJ       -1109
    x[27]     c1_1      866
    x[27]     c2_1      180
    x[27]     c3        205
    x[27]     c4        620
    x[27]     c5        823
    x[27]     c1        60
    x[27]     c2        424
    x[27]     OBJ       -974
    x[28]     c1_1      512
    x[28]     c2_1      256
    x[28]     c3        138
    x[28]     c4        449
    x[28]     c5        417
    x[28]     c1        382
    x[28]     c2        365
    x[28]     OBJ       -568
    x[29]     c1_1      99
    x[29]     c2_1      272
    x[29]     c3        355
    x[29]     c4        53
    x[29]     c5        362
    x[29]     c1        373
    x[29]     c2        374
    x[29]     OBJ       -572
    x[30]     c1_1      848
    x[30]     c2_1      376
    x[30]     c3        224
    x[30]     c4        620
    x[30]     c5        904
    x[30]     c1        570
    x[30]     c2        85
    x[30]     OBJ       -894
    x[31]     c1_1      350
    x[31]     c2_1      836
    x[31]     c3        696
    x[31]     c4        64
    x[31]     c5        722
    x[31]     c1        182
    x[31]     c2        650
    x[31]     OBJ       -817
    x[32]     c1_1      244
    x[32]     c2_1      657
    x[32]     c3        994
    x[32]     c4        495
    x[32]     c5        471
    x[32]     c1        934
    x[32]     c2        265
    x[32]     OBJ       -527
    x[33]     c1_1      965
    x[33]     c2_1      714
    x[33]     c3        302
    x[33]     c4        627
    x[33]     c5        129
    x[33]     c1        129
    x[33]     c2        711
    x[33]     OBJ       -576
    x[34]     c1_1      388
    x[34]     c2_1      632
    x[34]     c3        441
    x[34]     c4        704
    x[34]     c5        907
    x[34]     c1        542
    x[34]     c2        204
    x[34]     OBJ       -1172
    x[35]     c1_1      217
    x[35]     c2_1      730
    x[35]     c3        863
    x[35]     c4        618
    x[35]     c5        765
    x[35]     c1        767
    x[35]     c2        816
    x[35]     OBJ       -538
    x[36]     c1_1      915
    x[36]     c2_1      16
    x[36]     c3        229
    x[36]     c4        440
    x[36]     c5        821
    x[36]     c1        964
    x[36]     c2        595
    x[36]     OBJ       -252
    x[37]     c1_1      669
    x[37]     c2_1      218
    x[37]     c3        959
    x[37]     c4        73
    x[37]     c5        110
    x[37]     c1        896
    x[37]     c2        111
    x[37]     OBJ       -595
    x[38]     c1_1      314
    x[38]     c2_1      179
    x[38]     c3        321
    x[38]     c4        72
    x[38]     c5        184
    x[38]     c1        350
    x[38]     c2        707
    x[38]     OBJ       -582
    x[39]     c1_1      915
    x[39]     c2_1      523
    x[39]     c3        327
    x[39]     c4        574
    x[39]     c5        572
    x[39]     c1        178
    x[39]     c2        774
    x[39]     OBJ       -869
    x[40]     c1_1      492
    x[40]     c2_1      508
    x[40]     c3        108
    x[40]     c4        719
    x[40]     c5        340
    x[40]     c1        557
    x[40]     c2        138
    x[40]     OBJ       -827
    x[41]     c1_1      739
    x[41]     c2_1      846
    x[41]     c3        459
    x[41]     c4        918
    x[41]     c5        281
    x[41]     c1        975
    x[41]     c2        687
    x[41]     OBJ       -357
    x[42]     c1_1      58
    x[42]     c2_1      114
    x[42]     c3        816
    x[42]     c4        321
    x[42]     c5        202
    x[42]     c1        70
    x[42]     c2        131
    x[42]     OBJ       -701
    x[43]     c1_1      628
    x[43]     c2_1      536
    x[43]     c3        394
    x[43]     c4        661
    x[43]     c5        848
    x[43]     c1        226
    x[43]     c2        279
    x[43]     OBJ       -1132
    x[44]     c1_1      444
    x[44]     c2_1      684
    x[44]     c3        518
    x[44]     c4        506
    x[44]     c5        980
    x[44]     c1        356
    x[44]     c2        775
    x[44]     OBJ       -605
    x[45]     c1_1      632
    x[45]     c2_1      95
    x[45]     c3        6
    x[45]     c4        46
    x[45]     c5        738
    x[45]     c1        404
    x[45]     c2        191
    x[45]     OBJ       -904
    x[46]     c1_1      475
    x[46]     c2_1      698
    x[46]     c3        169
    x[46]     c4        711
    x[46]     c5        282
    x[46]     c1        79
    x[46]     c2        217
    x[46]     OBJ       -783
    x[47]     c1_1      598
    x[47]     c2_1      977
    x[47]     c3        231
    x[47]     c4        309
    x[47]     c5        327
    x[47]     c1        833
    x[47]     c2        181
    x[47]     OBJ       -655
    x[48]     c1_1      752
    x[48]     c2_1      621
    x[48]     c3        425
    x[48]     c4        864
    x[48]     c5        909
    x[48]     c1        616
    x[48]     c2        750
    x[48]     OBJ       -697
    x[49]     c1_1      493
    x[49]     c2_1      495
    x[49]     c3        643
    x[49]     c4        273
    x[49]     c5        303
    x[49]     c1        575
    x[49]     c2        890
    x[49]     OBJ       -360
    x[50]     c1_1      928
    x[50]     c2_1      670
    x[50]     c3        565
    x[50]     c4        160
    x[50]     c5        79
    x[50]     c1        987
    x[50]     c2        776
    x[50]     OBJ       -384
    x[51]     c1_1      52
    x[51]     c2_1      477
    x[51]     c3        460
    x[51]     c4        805
    x[51]     c5        623
    x[51]     c1        340
    x[51]     c2        484
    x[51]     OBJ       -661
    x[52]     c1_1      114
    x[52]     c2_1      490
    x[52]     c3        9
    x[52]     c4        287
    x[52]     c5        917
    x[52]     c1        794
    x[52]     c2        655
    x[52]     OBJ       -198
    x[53]     c1_1      58
    x[53]     c2_1      800
    x[53]     c3        431
    x[53]     c4        435
    x[53]     c5        649
    x[53]     c1        321
    x[53]     c2        662
    x[53]     OBJ       -547
    x[54]     c1_1      106
    x[54]     c2_1      116
    x[54]     c3        18
    x[54]     c4        888
    x[54]     c5        773
    x[54]     c1        337
    x[54]     c2        662
    x[54]     OBJ       -824
    x[55]     c1_1      876
    x[55]     c2_1      236
    x[55]     c3        443
    x[55]     c4        311
    x[55]     c5        490
    x[55]     c1        580
    x[55]     c2        995
    x[55]     OBJ       -172
    x[56]     c1_1      165
    x[56]     c2_1      134
    x[56]     c3        617
    x[56]     c4        251
    x[56]     c5        640
    x[56]     c1        920
    x[56]     c2        248
    x[56]     OBJ       -515
    x[57]     c1_1      645
    x[57]     c2_1      772
    x[57]     c3        276
    x[57]     c4        289
    x[57]     c5        101
    x[57]     c1        425
    x[57]     c2        718
    x[57]     OBJ       -618
    x[58]     c1_1      133
    x[58]     c2_1      567
    x[58]     c3        97
    x[58]     c4        650
    x[58]     c5        145
    x[58]     c1        170
    x[58]     c2        321
    x[58]     OBJ       -980
    x[59]     c1_1      86
    x[59]     c2_1      906
    x[59]     c3        238
    x[59]     c4        867
    x[59]     c5        935
    x[59]     c1        955
    x[59]     c2        533
    x[59]     OBJ       -575
    x[60]     c1_1      881
    x[60]     c2_1      515
    x[60]     c3        460
    x[60]     c4        390
    x[60]     c5        211
    x[60]     c1        581
    x[60]     c2        391
    x[60]     OBJ       -639
    x[61]     c1_1      640
    x[61]     c2_1      516
    x[61]     c3        359
    x[61]     c4        961
    x[61]     c5        59
    x[61]     c1        739
    x[61]     c2        81
    x[61]     OBJ       -716
    x[62]     c1_1      18
    x[62]     c2_1      656
    x[62]     c3        594
    x[62]     c4        978
    x[62]     c5        986
    x[62]     c1        622
    x[62]     c2        253
    x[62]     OBJ       -1007
    x[63]     c1_1      449
    x[63]     c2_1      636
    x[63]     c3        738
    x[63]     c4        79
    x[63]     c5        103
    x[63]     c1        473
    x[63]     c2        879
    x[63]     OBJ       -210
    x[64]     c1_1      596
    x[64]     c2_1      624
    x[64]     c3        42
    x[64]     c4        51
    x[64]     c5        854
    x[64]     c1        789
    x[64]     c2        540
    x[64]     OBJ       -258
    x[65]     c1_1      705
    x[65]     c2_1      897
    x[65]     c3        464
    x[65]     c4        446
    x[65]     c5        832
    x[65]     c1        946
    x[65]     c2        959
    x[65]     OBJ       -475
    x[66]     c1_1      702
    x[66]     c2_1      515
    x[66]     c3        80
    x[66]     c4        707
    x[66]     c5        376
    x[66]     c1        499
    x[66]     c2        118
    x[66]     OBJ       -988
    x[67]     c1_1      714
    x[67]     c2_1      584
    x[67]     c3        836
    x[67]     c4        568
    x[67]     c5        706
    x[67]     c1        666
    x[67]     c2        989
    x[67]     OBJ       -605
    x[68]     c1_1      743
    x[68]     c2_1      940
    x[68]     c3        244
    x[68]     c4        848
    x[68]     c5        677
    x[68]     c1        546
    x[68]     c2        781
    x[68]     OBJ       -795
    x[69]     c1_1      960
    x[69]     c2_1      299
    x[69]     c3        564
    x[69]     c4        941
    x[69]     c5        580
    x[69]     c1        630
    x[69]     c2        678
    x[69]     OBJ       -842
    x[70]     c1_1      663
    x[70]     c2_1      578
    x[70]     c3        548
    x[70]     c4        419
    x[70]     c5        121
    x[70]     c1        997
    x[70]     c2        787
    x[70]     OBJ       -298
    x[71]     c1_1      476
    x[71]     c2_1      774
    x[71]     c3        774
    x[71]     c4        367
    x[71]     c5        189
    x[71]     c1        462
    x[71]     c2        424
    x[71]     OBJ       -617
    x[72]     c1_1      804
    x[72]     c2_1      805
    x[72]     c3        822
    x[72]     c4        814
    x[72]     c5        13
    x[72]     c1        750
    x[72]     c2        721
    x[72]     OBJ       -729
    x[73]     c1_1      554
    x[73]     c2_1      277
    x[73]     c3        20
    x[73]     c4        699
    x[73]     c5        67
    x[73]     c1        841
    x[73]     c2        623
    x[73]     OBJ       -351
    x[74]     c1_1      482
    x[74]     c2_1      500
    x[74]     c3        410
    x[74]     c4        544
    x[74]     c5        607
    x[74]     c1        795
    x[74]     c2        833
    x[74]     OBJ       -389
    x[75]     c1_1      974
    x[75]     c2_1      56
    x[75]     c3        327
    x[75]     c4        44
    x[75]     c5        477
    x[75]     c1        2
    x[75]     c2        986
    x[75]     OBJ       -693
    x[76]     c1_1      672
    x[76]     c2_1      191
    x[76]     c3        327
    x[76]     c4        322
    x[76]     c5        175
    x[76]     c1        522
    x[76]     c2        141
    x[76]     OBJ       -486
    x[77]     c1_1      464
    x[77]     c2_1      333
    x[77]     c3        755
    x[77]     c4        371
    x[77]     c5        724
    x[77]     c1        778
    x[77]     c2        66
    x[77]     OBJ       -765
    x[78]     c1_1      357
    x[78]     c2_1      692
    x[78]     c3        870
    x[78]     c4        753
    x[78]     c5        411
    x[78]     c1        42
    x[78]     c2        983
    x[78]     OBJ       -587
    x[79]     c1_1      111
    x[79]     c2_1      299
    x[79]     c3        678
    x[79]     c4        252
    x[79]     c5        543
    x[79]     c1        714
    x[79]     c2        449
    x[79]     OBJ       -611
    x[80]     c1_1      284
    x[80]     c2_1      206
    x[80]     c3        193
    x[80]     c4        969
    x[80]     c5        910
    x[80]     c1        645
    x[80]     c2        654
    x[80]     OBJ       -392
    x[81]     c1_1      775
    x[81]     c2_1      940
    x[81]     c3        163
    x[81]     c4        281
    x[81]     c5        619
    x[81]     c1        855
    x[81]     c2        458
    x[81]     OBJ       -508
    x[82]     c1_1      25
    x[82]     c2_1      281
    x[82]     c3        92
    x[82]     c4        925
    x[82]     c5        312
    x[82]     c1        396
    x[82]     c2        675
    x[82]     OBJ       -505
    x[83]     c1_1      506
    x[83]     c2_1      627
    x[83]     c3        973
    x[83]     c4        34
    x[83]     c5        695
    x[83]     c1        768
    x[83]     c2        515
    x[83]     OBJ       -744
    x[84]     c1_1      899
    x[84]     c2_1      993
    x[84]     c3        312
    x[84]     c4        910
    x[84]     c5        328
    x[84]     c1        392
    x[84]     c2        718
    x[84]     OBJ       -661
    x[85]     c1_1      766
    x[85]     c2_1      90
    x[85]     c3        380
    x[85]     c4        63
    x[85]     c5        455
    x[85]     c1        141
    x[85]     c2        486
    x[85]     OBJ       -490
    x[86]     c1_1      155
    x[86]     c2_1      529
    x[86]     c3        682
    x[86]     c4        780
    x[86]     c5        671
    x[86]     c1        544
    x[86]     c2        881
    x[86]     OBJ       -696
    x[87]     c1_1      785
    x[87]     c2_1      840
    x[87]     c3        390
    x[87]     c4        663
    x[87]     c5        213
    x[87]     c1        847
    x[87]     c2        726
    x[87]     OBJ       -305
    x[88]     c1_1      164
    x[88]     c2_1      516
    x[88]     c3        5
    x[88]     c4        387
    x[88]     c5        526
    x[88]     c1        263
    x[88]     c2        386
    x[88]     OBJ       -899
    x[89]     c1_1      970
    x[89]     c2_1      655
    x[89]     c3        273
    x[89]     c4        955
    x[89]     c5        282
    x[89]     c1        325
    x[89]     c2        796
    x[89]     OBJ       -683
    x[90]     c1_1      846
    x[90]     c2_1      564
    x[90]     c3        551
    x[90]     c4        230
    x[90]     c5        590
    x[90]     c1        227
    x[90]     c2        229
    x[90]     OBJ       -1142
    x[91]     c1_1      563
    x[91]     c2_1      154
    x[91]     c3        670
    x[91]     c4        425
    x[91]     c5        606
    x[91]     c1        765
    x[91]     c2        398
    x[91]     OBJ       -643
    x[92]     c1_1      813
    x[92]     c2_1      20
    x[92]     c3        464
    x[92]     c4        152
    x[92]     c5        908
    x[92]     c1        128
    x[92]     c2        335
    x[92]     OBJ       -1108
    x[93]     c1_1      289
    x[93]     c2_1      625
    x[93]     c3        643
    x[93]     c4        468
    x[93]     c5        340
    x[93]     c1        10
    x[93]     c2        624
    x[93]     OBJ       -669
    x[94]     c1_1      874
    x[94]     c2_1      897
    x[94]     c3        392
    x[94]     c4        239
    x[94]     c5        40
    x[94]     c1        973
    x[94]     c2        283
    x[94]     OBJ       -344
    x[95]     c1_1      462
    x[95]     c2_1      981
    x[95]     c3        51
    x[95]     c4        956
    x[95]     c5        560
    x[95]     c1        162
    x[95]     c2        182
    x[95]     OBJ       -1072
    x[96]     c1_1      851
    x[96]     c2_1      1000
    x[96]     c3        200
    x[96]     c4        78
    x[96]     c5        567
    x[96]     c1        743
    x[96]     c2        589
    x[96]     OBJ       -544
    x[97]     c1_1      663
    x[97]     c2_1      633
    x[97]     c3        98
    x[97]     c4        696
    x[97]     c5        94
    x[97]     c1        208
    x[97]     c2        153
    x[97]     OBJ       -940
    x[98]     c1_1      667
    x[98]     c2_1      307
    x[98]     c3        158
    x[98]     c4        912
    x[98]     c5        218
    x[98]     c1        223
    x[98]     c2        945
    x[98]     OBJ       -389
    x[99]     c1_1      67
    x[99]     c2_1      220
    x[99]     c3        375
    x[99]     c4        787
    x[99]     c5        43
    x[99]     c1        981
    x[99]     c2        272
    x[99]     OBJ       -349
    x[100]    c1_1      355
    x[100]    c2_1      61
    x[100]    c3        714
    x[100]    c4        419
    x[100]    c5        825
    x[100]    c1        143
    x[100]    c2        849
    x[100]    OBJ       -841
RHS
    rhs       c1_1      13486
    rhs       c2_1      12749
    rhs       c3        11130
    rhs       c4        12651
    rhs       c5        12451
    rhs       c1        13162
    rhs       c2        13388
RANGES
BOUNDS
 LO bounds    ss[1]     0
 PL bounds    ss[1]
 LO bounds    ss[2]     0
 PL bounds    ss[2]
 MI bounds    s[1]
 UP bounds    s[1]      0
 MI bounds    s[2]
 UP bounds    s[2]      0
 MI bounds    s[3]
 UP bounds    s[3]      0
 MI bounds    s[4]
 UP bounds    s[4]      0
 MI bounds    s[5]
 UP bounds    s[5]      0
 BV bounds    x[1]
 BV bounds    x[2]
 BV bounds    x[3]
 BV bounds    x[4]
 BV bounds    x[5]
 BV bounds    x[6]
 BV bounds    x[7]
 BV bounds    x[8]
 BV bounds    x[9]
 BV bounds    x[10]
 BV bounds    x[11]
 BV bounds    x[12]
 BV bounds    x[13]
 BV bounds    x[14]
 BV bounds    x[15]
 BV bounds    x[16]
 BV bounds    x[17]
 BV bounds    x[18]
 BV bounds    x[19]
 BV bounds    x[20]
 BV bounds    x[21]
 BV bounds    x[22]
 BV bounds    x[23]
 BV bounds    x[24]
 BV bounds    x[25]
 BV bounds    x[26]
 BV bounds    x[27]
 BV bounds    x[28]
 BV bounds    x[29]
 BV bounds    x[30]
 BV bounds    x[31]
 BV bounds    x[32]
 BV bounds    x[33]
 BV bounds    x[34]
 BV bounds    x[35]
 BV bounds    x[36]
 BV bounds    x[37]
 BV bounds    x[38]
 BV bounds    x[39]
 BV bounds    x[40]
 BV bounds    x[41]
 BV bounds    x[42]
 BV bounds    x[43]
 BV bounds    x[44]
 BV bounds    x[45]
 BV bounds    x[46]
 BV bounds    x[47]
 BV bounds    x[48]
 BV bounds    x[49]
 BV bounds    x[50]
 BV bounds    x[51]
 BV bounds    x[52]
 BV bounds    x[53]
 BV bounds    x[54]
 BV bounds    x[55]
 BV bounds    x[56]
 BV bounds    x[57]
 BV bounds    x[58]
 BV bounds    x[59]
 BV bounds    x[60]
 BV bounds    x[61]
 BV bounds    x[62]
 BV bounds    x[63]
 BV bounds    x[64]
 BV bounds    x[65]
 BV bounds    x[66]
 BV bounds    x[67]
 BV bounds    x[68]
 BV bounds    x[69]
 BV bounds    x[70]
 BV bounds    x[71]
 BV bounds    x[72]
 BV bounds    x[73]
 BV bounds    x[74]
 BV bounds    x[75]
 BV bounds    x[76]
 BV bounds    x[77]
 BV bounds    x[78]
 BV bounds    x[79]
 BV bounds    x[80]
 BV bounds    x[81]
 BV bounds    x[82]
 BV bounds    x[83]
 BV bounds    x[84]
 BV bounds    x[85]
 BV bounds    x[86]
 BV bounds    x[87]
 BV bounds    x[88]
 BV bounds    x[89]
 BV bounds    x[90]
 BV bounds    x[91]
 BV bounds    x[92]
 BV bounds    x[93]
 BV bounds    x[94]
 BV bounds    x[95]
 BV bounds    x[96]
 BV bounds    x[97]
 BV bounds    x[98]
 BV bounds    x[99]
 BV bounds    x[100]
ENDATA
